667
1   1   0    66   0 19 40 41 13 0
1   2   0    79   0 37 12 18 0
1   3   0    0    0 0
1   4   0    75   0 17 15 33 45 44 42 0
2   1   0    0    0 0
2   2   0    70   0 6 23 48 1 27 0
2   3   0    74   0 47 25 14 0
2   4   0    0    0 0
3   1   0    0    0 0
3   2   0    0    0 0
3   3   0    74   0 10 39 30 34 50 0
3   4   0    65   0 49 5 38 9 0
4   1   0    51   0 20 36 35 0
4   2   0    72   0 3 28 31 8 22 0
4   3   0    72   0 21 16 11 2 0
4   4   0    79   0 32 46 4 24 43 7 26 29 0